1651471200
1651500000
1651557600
1651586400
1651644000
1651672800
1651730400
1651759200
1651816800
1651845600
1652076000
1652104800
1652162400
1652191200
1652248800
1652277600
1652335200
1652364000
1652421600
1652450400
1652450400
1652457600
1652680800
1652709600
1652767200
1652796000
1652853600
1652882400
1652940000
1652968800
1653285600
1653314400
1653372000
1653400800
1653400800
1653408000
1653458400
1653487200
1653631200
1653660000
1653890400
1653919200
1653976800
1654005600
